NAME : sim71.87404.tour
COMMENT : Length = 87404
COMMENT : Found by LKH [Keld Helsgaun] Sat Sep 15 20:22:16 2018
TYPE : TOUR
DIMENSION : 71
TOUR_SECTION
1
12
38
21
45
17
6
2
51
15
53
56
43
10
69
41
11
49
34
20
23
31
62
59
57
61
32
28
16
50
22
36
68
39
48
4
30
40
55
7
47
66
35
27
46
37
14
18
33
64
26
19
67
8
29
63
42
3
70
65
24
13
60
25
54
58
71
5
44
9
52
-1
EOF
